&CONTROL
  calculation = 'scf',
  prefix = 'silicon',
  outdir = './tmp/'
  pseudo_dir = '/home/ws/gt5111/Celso_QE/SSSP_precision/'
  verbosity = 'high'
/

&SYSTEM
  ibrav =  2,
  celldm(1) = 10.26,
  nat =  2,
  ntyp = 1,
  ecutwfc = 30
  nbnd = 8
/

&ELECTRONS
  mixing_beta = 0.6
/

ATOMIC_SPECIES
  Si 28.086 Si.pbe-n-rrkjus_psl.1.0.0.UPF

ATOMIC_POSITIONS (alat)
  Si 0.0 0.0 0.0
  Si 0.25 0.25 0.25

K_POINTS (automatic)
  6 6 6 0 0 0
